(set-logic HORN)
(declare-fun inv ((_ BitVec 8) (_ BitVec 8) ) Bool)
(assert (forall ((x (_ BitVec 8)) (y (_ BitVec 8))) 
       (=> ( and ( bvsle x (_ bv1 8) ) ( bvsge x (_ bv0 8) ) ( = y ( bvadd (_ bv1 8) ( bvnot (_ bv3 8) ) ) ) ) (inv x y))))
(assert (forall ((x (_ BitVec 8)) (y (_ BitVec 8)) (x! (_ BitVec 8)) (y! (_ BitVec 8))) 
       (=> (and (inv x y) ( or ( and ( = x! ( bvsub x (_ bv1 8) ) ) ( = y! ( bvadd y (_ bv2 8) ) ) ( bvslt ( bvsub x y ) (_ bv2 8) ) ) ( and ( = x! x ) ( = y! ( bvadd y (_ bv1 8) ) ) ( bvsge ( bvsub x y ) (_ bv2 8) ) ) )) (inv x! y!))))
(assert (forall ((x (_ BitVec 8)) (y (_ BitVec 8))) 
       (=> (inv x y) ( and ( bvsle x (_ bv1 8) ) ( bvsge y ( bvadd (_ bv1 8) ( bvnot (_ bv3 8) ) ) ) ))))
(check-sat)
